30
1 0 26
2 0 12
2 1 65
3 0 79
3 1 74
3 2 88
4 0 68
4 1 147
4 2 35
4 3 148
5 0 21
5 1 134
5 2 146
5 4 61
6 0 13
6 1 41
6 2 3
6 3 82
6 4 131
6 5 107
7 0 46
7 1 136
7 2 23
7 3 1
7 4 62
7 6 74
8 0 143
8 1 156
8 3 6
8 4 74
8 5 84
8 6 95
8 7 128
9 0 59
9 1 21
9 2 66
9 3 143
9 5 27
9 6 46
9 7 130
10 0 3
10 1 13
10 2 6
10 3 108
10 4 146
10 5 41
10 6 9
10 7 71
10 8 120
10 9 126
11 0 11
11 2 134
11 3 103
11 4 47
11 5 79
11 6 102
11 7 109
11 8 118
11 9 13
11 10 18
12 1 105
12 2 157
12 3 78
12 4 98
12 5 118
12 6 93
12 7 150
12 8 65
12 9 9
12 10 78
12 11 35
13 0 100
13 1 110
13 3 128
13 4 148
13 6 64
13 7 125
13 8 141
13 9 56
13 10 127
13 11 108
13 12 138
14 1 61
14 2 135
14 3 128
14 4 94
14 5 17
14 6 65
14 7 70
14 8 26
14 9 65
14 10 20
14 12 101
14 13 75
15 0 50
15 1 156
15 2 12
15 3 70
15 4 127
15 5 158
15 6 102
15 7 88
15 8 149
15 9 53
15 10 140
15 13 31
15 14 36
16 0 32
16 1 32
16 2 40
16 4 35
16 5 6
16 6 149
16 7 82
16 8 116
16 10 60
16 11 24
16 12 116
16 13 1
16 14 75
16 15 106
17 0 142
17 1 25
17 2 57
17 3 73
17 4 1
17 6 90
17 7 140
17 8 67
17 9 83
17 10 86
17 11 34
17 12 26
17 13 23
17 14 7
17 15 65
17 16 6
18 0 152
18 1 16
18 2 2
18 3 116
18 4 142
18 5 79
18 6 36
18 8 142
18 9 99
18 10 63
18 11 129
18 12 82
18 13 113
18 15 24
18 16 40
18 17 56
19 0 42
19 2 40
19 3 146
19 4 150
19 5 29
19 6 38
19 7 77
19 8 94
19 10 111
19 12 89
19 13 102
19 16 113
19 17 38
19 18 73
20 0 3
20 1 56
20 3 9
20 4 90
20 5 101
20 6 43
20 8 122
20 9 98
20 11 126
20 13 86
20 14 30
20 15 83
20 16 53
20 17 123
20 18 65
20 19 23
21 0 26
21 1 157
21 2 105
21 3 2
21 4 126
21 7 81
21 9 37
21 10 86
21 11 138
21 12 52
21 13 153
21 15 56
21 17 114
21 18 70
21 19 24
21 20 88
22 0 91
22 1 119
22 2 83
22 3 27
22 4 37
22 5 38
22 6 70
22 7 80
22 8 96
22 9 42
22 10 3
22 11 97
22 12 14
22 16 93
22 17 114
22 18 6
22 19 16
22 20 38
22 21 67
23 0 55
23 4 24
23 5 108
23 6 52
23 7 141
23 9 73
23 10 81
23 12 158
23 13 159
23 14 32
23 16 12
23 17 87
23 18 85
23 19 59
23 21 30
23 22 156
24 0 87
24 1 152
24 2 26
24 3 63
24 4 137
24 5 111
24 6 70
24 7 16
24 9 148
24 11 98
24 13 59
24 15 15
24 16 13
24 19 97
24 20 26
24 21 107
25 0 127
25 2 90
25 3 155
25 4 153
25 5 16
25 6 122
25 8 7
25 9 108
25 10 32
25 11 37
25 12 90
25 13 130
25 14 141
25 16 23
25 17 113
25 18 144
25 19 123
25 20 32
25 21 160
25 22 125
25 23 149
25 24 8
26 1 66
26 2 121
26 3 128
26 4 4
26 5 157
26 8 81
26 9 109
26 10 87
26 11 58
26 12 22
26 13 61
26 14 125
26 15 154
26 17 85
26 18 16
26 19 50
26 20 3
26 21 122
26 22 5
26 23 106
26 24 72
27 0 114
27 2 44
27 3 7
27 5 6
27 7 11
27 9 24
27 12 59
27 13 79
27 14 43
27 15 22
27 18 96
27 19 7
27 20 153
27 21 65
27 22 90
27 24 113
27 26 96
28 0 3
28 1 64
28 2 9
28 3 83
28 4 23
28 5 80
28 6 4
28 7 99
28 8 15
28 10 39
28 11 133
28 13 38
28 14 3
28 15 69
28 16 132
28 17 135
28 18 65
28 19 86
28 20 40
28 21 24
28 22 78
28 23 6
28 24 88
28 26 65
28 27 150
29 0 16
29 2 32
29 3 26
29 4 37
29 6 74
29 9 15
29 11 59
29 12 84
29 13 65
29 14 115
29 15 37
29 16 95
29 17 1
29 18 151
29 20 99
29 21 56
29 22 124
29 23 103
29 24 21
29 25 98
29 26 119
29 27 63
